DIMACS_lns/graph-1000-232.col
p edge 1000 1811
e 2 240
e 2 411
e 2 732
e 2 164
e 3 129
e 3 43
e 3 93
e 4 199
e 4 921
e 4 203
e 4 458
e 5 916
e 5 203
e 5 667
e 5 144
e 5 551
e 5 359
e 5 748
e 6 805
e 6 391
e 6 252
e 6 787
e 7 675
e 7 639
e 7 697
e 7 245
e 7 550
e 7 999
e 7 118
e 7 521
e 8 111
e 8 639
e 8 81
e 8 942
e 9 427
e 9 713
e 9 109
e 9 125
e 9 386
e 10 290
e 10 34
e 10 699
e 10 190
e 10 96
e 10 88
e 10 419
e 10 380
e 13 574
e 13 463
e 13 245
e 14 535
e 14 830
e 14 417
e 14 702
e 14 461
e 14 318
e 14 541
e 14 158
e 15 293
e 15 802
e 15 454
e 16 820
e 16 703
e 16 290
e 17 517
e 17 34
e 17 320
e 17 752
e 17 855
e 17 811
e 17 762
e 18 853
e 18 928
e 18 234
e 20 514
e 20 444
e 20 505
e 20 390
e 20 850
e 20 814
e 21 36
e 21 630
e 21 160
e 21 769
e 21 501
e 21 704
e 21 896
e 22 865
e 22 363
e 22 921
e 22 822
e 22 406
e 23 49
e 23 663
e 23 844
e 23 827
e 23 853
e 23 413
e 24 113
e 24 481
e 24 678
e 24 573
e 24 200
e 24 577
e 25 505
e 25 241
e 25 619
e 26 74
e 26 304
e 26 172
e 26 176
e 26 194
e 27 822
e 27 355
e 27 256
e 27 705
e 27 893
e 28 333
e 28 32
e 28 800
e 28 933
e 30 634
e 30 436
e 30 638
e 31 577
e 31 48
e 31 516
e 32 934
e 32 341
e 32 674
e 32 776
e 32 284
e 34 735
e 34 686
e 36 883
e 36 867
e 36 677
e 36 881
e 37 522
e 37 288
e 37 535
e 38 522
e 38 128
e 38 58
e 38 463
e 38 357
e 38 794
e 38 194
e 38 351
e 38 987
e 38 380
e 39 590
e 39 864
e 39 599
e 39 619
e 39 366
e 39 865
e 40 978
e 40 125
e 40 473
e 40 928
e 40 258
e 40 289
e 40 665
e 40 865
e 40 236
e 40 624
e 40 252
e 41 131
e 41 715
e 41 305
e 41 90
e 42 940
e 42 380
e 42 851
e 42 579
e 42 963
e 42 734
e 43 912
e 43 757
e 44 74
e 44 141
e 44 870
e 44 301
e 47 96
e 47 55
e 47 659
e 47 946
e 48 921
e 48 716
e 48 999
e 48 528
e 48 106
e 49 752
e 49 191
e 49 321
e 49 852
e 50 422
e 50 706
e 50 449
e 50 204
e 51 564
e 51 781
e 51 295
e 51 255
e 51 738
e 51 116
e 53 628
e 53 80
e 53 740
e 53 108
e 53 183
e 54 693
e 54 565
e 54 789
e 54 554
e 54 490
e 54 640
e 54 765
e 54 847
e 54 327
e 54 341
e 54 93
e 54 955
e 55 509
e 55 787
e 55 969
e 55 793
e 55 337
e 56 769
e 56 992
e 56 191
e 58 321
e 58 346
e 58 749
e 58 552
e 59 583
e 59 765
e 59 402
e 59 120
e 59 690
e 61 943
e 61 651
e 61 281
e 61 846
e 61 372
e 61 839
e 62 804
e 62 699
e 62 420
e 62 736
e 62 903
e 63 366
e 63 613
e 63 568
e 63 597
e 63 732
e 63 923
e 64 263
e 64 419
e 64 197
e 64 540
e 65 716
e 65 766
e 65 872
e 65 240
e 65 677
e 65 979
e 67 816
e 67 455
e 67 423
e 67 951
e 69 833
e 69 654
e 69 112
e 69 415
e 70 524
e 70 969
e 70 425
e 70 503
e 71 637
e 71 630
e 71 175
e 71 786
e 71 488
e 72 390
e 72 615
e 72 638
e 73 797
e 73 597
e 73 272
e 73 107
e 74 568
e 74 662
e 74 230
e 74 386
e 74 592
e 75 165
e 75 929
e 75 140
e 75 111
e 75 374
e 76 639
e 76 779
e 76 607
e 77 244
e 77 949
e 77 209
e 77 960
e 77 641
e 78 352
e 78 437
e 78 278
e 79 129
e 79 953
e 79 151
e 79 296
e 79 632
e 79 836
e 79 894
e 80 337
e 80 557
e 80 299
e 80 355
e 81 723
e 81 557
e 82 822
e 82 998
e 82 333
e 85 794
e 85 459
e 85 864
e 85 322
e 85 629
e 85 575
e 85 994
e 87 798
e 87 765
e 87 809
e 87 705
e 87 828
e 87 449
e 87 774
e 88 335
e 88 406
e 88 481
e 88 427
e 88 710
e 88 389
e 88 477
e 88 109
e 89 840
e 89 216
e 89 395
e 89 639
e 89 214
e 89 126
e 90 835
e 90 510
e 91 307
e 91 734
e 91 420
e 93 173
e 93 271
e 93 759
e 93 650
e 94 172
e 94 577
e 94 669
e 94 910
e 95 146
e 95 710
e 95 870
e 95 490
e 96 210
e 96 403
e 96 838
e 96 406
e 99 713
e 99 340
e 99 443
e 99 155
e 99 761
e 99 449
e 100 195
e 100 227
e 100 445
e 101 696
e 101 387
e 101 585
e 101 152
e 102 853
e 102 605
e 102 625
e 102 732
e 103 863
e 103 202
e 103 129
e 103 886
e 103 955
e 103 720
e 103 875
e 104 539
e 104 849
e 104 601
e 104 163
e 104 903
e 104 956
e 105 941
e 105 141
e 105 574
e 106 916
e 106 907
e 106 685
e 106 417
e 106 776
e 107 374
e 107 423
e 107 158
e 108 257
e 108 410
e 109 765
e 109 755
e 109 853
e 109 431
e 110 236
e 110 331
e 110 693
e 110 173
e 111 501
e 111 207
e 111 602
e 112 289
e 112 445
e 112 495
e 113 1000
e 113 511
e 113 954
e 113 169
e 114 934
e 114 541
e 114 671
e 115 465
e 115 424
e 115 696
e 115 890
e 116 835
e 116 156
e 116 424
e 118 612
e 118 722
e 118 684
e 120 218
e 120 602
e 120 296
e 120 173
e 120 336
e 120 893
e 122 327
e 122 434
e 122 178
e 122 335
e 123 533
e 123 574
e 123 843
e 123 940
e 124 607
e 124 187
e 124 636
e 124 814
e 124 304
e 124 232
e 125 214
e 125 794
e 125 926
e 126 489
e 126 623
e 126 250
e 126 374
e 126 258
e 126 810
e 126 719
e 127 611
e 127 549
e 127 597
e 127 131
e 128 819
e 128 484
e 128 605
e 128 526
e 128 331
e 128 272
e 129 275
e 130 741
e 130 885
e 130 932
e 130 465
e 130 566
e 130 367
e 130 827
e 130 834
e 131 754
e 131 749
e 132 149
e 132 527
e 132 358
e 133 341
e 133 461
e 133 709
e 134 777
e 134 253
e 134 893
e 136 204
e 136 293
e 136 928
e 140 289
e 140 635
e 140 316
e 140 712
e 140 863
e 140 973
e 141 172
e 141 760
e 141 245
e 141 730
e 142 373
e 142 366
e 142 369
e 144 869
e 144 975
e 145 778
e 145 245
e 145 972
e 145 512
e 146 883
e 146 827
e 146 373
e 148 933
e 148 848
e 148 446
e 149 854
e 149 345
e 149 798
e 150 774
e 150 555
e 150 253
e 151 951
e 151 632
e 151 940
e 152 478
e 152 600
e 152 464
e 153 998
e 153 571
e 153 292
e 153 872
e 155 837
e 155 718
e 155 511
e 155 371
e 156 477
e 156 533
e 156 643
e 157 881
e 157 916
e 157 486
e 157 257
e 157 818
e 157 412
e 157 180
e 158 684
e 159 659
e 159 250
e 159 824
e 159 319
e 160 413
e 160 808
e 160 817
e 161 588
e 161 994
e 161 331
e 162 263
e 162 498
e 162 272
e 162 851
e 163 252
e 163 685
e 163 619
e 163 645
e 164 720
e 164 921
e 164 830
e 164 801
e 165 876
e 165 585
e 165 668
e 165 534
e 167 729
e 167 800
e 167 169
e 167 510
e 167 451
e 167 869
e 169 960
e 170 211
e 170 894
e 170 227
e 171 222
e 171 350
e 171 387
e 172 482
e 172 295
e 173 549
e 173 509
e 173 259
e 173 607
e 175 574
e 175 657
e 175 191
e 175 556
e 176 710
e 176 311
e 176 384
e 178 423
e 178 908
e 178 467
e 179 459
e 179 704
e 179 492
e 179 322
e 180 583
e 180 984
e 180 359
e 180 810
e 181 420
e 181 272
e 181 839
e 181 540
e 183 681
e 183 488
e 183 631
e 183 291
e 184 218
e 184 655
e 184 600
e 185 583
e 185 512
e 185 609
e 187 717
e 187 728
e 187 455
e 187 222
e 188 307
e 188 939
e 188 581
e 188 204
e 188 514
e 189 894
e 189 204
e 189 854
e 190 748
e 190 741
e 191 614
e 191 855
e 192 682
e 192 694
e 192 951
e 192 823
e 192 204
e 193 461
e 193 690
e 193 533
e 193 286
e 194 266
e 194 367
e 194 805
e 195 358
e 195 967
e 195 607
e 196 234
e 196 719
e 196 940
e 196 754
e 197 504
e 197 375
e 197 667
e 198 940
e 198 869
e 198 966
e 199 984
e 199 425
e 200 303
e 200 284
e 200 708
e 201 290
e 201 565
e 201 757
e 201 526
e 202 381
e 202 975
e 202 527
e 203 631
e 204 777
e 204 876
e 204 499
e 204 635
e 204 532
e 204 466
e 206 634
e 206 632
e 206 690
e 206 713
e 207 519
e 207 797
e 207 855
e 207 620
e 207 423
e 207 885
e 208 710
e 208 319
e 208 337
e 208 645
e 208 792
e 208 372
e 209 717
e 209 828
e 209 475
e 210 988
e 210 521
e 210 494
e 210 949
e 210 801
e 211 633
e 211 537
e 214 490
e 214 706
e 214 879
e 215 878
e 215 239
e 215 614
e 215 517
e 216 494
e 216 797
e 216 564
e 217 454
e 217 834
e 217 994
e 217 919
e 218 932
e 218 569
e 218 666
e 219 827
e 219 464
e 219 383
e 220 399
e 220 264
e 220 988
e 221 634
e 221 942
e 221 357
e 222 253
e 222 505
e 222 847
e 222 802
e 222 266
e 222 810
e 223 843
e 223 383
e 223 489
e 223 460
e 227 261
e 227 363
e 228 629
e 228 786
e 228 577
e 228 448
e 228 785
e 229 291
e 229 271
e 229 651
e 229 552
e 230 882
e 230 331
e 230 899
e 231 304
e 231 828
e 231 359
e 231 496
e 232 535
e 232 926
e 232 683
e 233 965
e 233 495
e 233 780
e 233 869
e 233 768
e 234 463
e 234 723
e 234 624
e 235 844
e 235 804
e 235 652
e 235 550
e 236 445
e 236 471
e 236 734
e 236 786
e 239 896
e 239 478
e 240 487
e 240 961
e 240 692
e 240 953
e 241 766
e 241 957
e 242 605
e 242 977
e 242 482
e 243 588
e 243 822
e 243 950
e 244 366
e 244 552
e 245 733
e 245 343
e 246 522
e 246 607
e 246 911
e 246 603
e 246 437
e 246 475
e 247 406
e 247 854
e 247 425
e 247 885
e 249 806
e 249 853
e 249 569
e 249 680
e 249 655
e 250 879
e 250 813
e 250 280
e 251 526
e 251 455
e 251 643
e 252 638
e 252 599
e 252 966
e 252 994
e 253 312
e 253 508
e 254 412
e 254 386
e 254 426
e 254 343
e 254 498
e 254 540
e 255 395
e 255 344
e 256 622
e 256 421
e 256 529
e 256 505
e 257 869
e 257 863
e 258 767
e 258 854
e 258 880
e 258 587
e 259 675
e 259 901
e 259 674
e 259 503
e 259 534
e 260 831
e 260 862
e 260 469
e 260 590
e 261 874
e 261 478
e 261 844
e 261 836
e 261 348
e 261 780
e 261 301
e 263 460
e 263 667
e 263 503
e 263 784
e 263 873
e 263 627
e 263 504
e 263 823
e 264 922
e 264 955
e 264 735
e 264 528
e 265 425
e 265 907
e 265 387
e 265 975
e 265 999
e 265 938
e 266 624
e 266 656
e 269 848
e 269 610
e 269 593
e 271 429
e 271 702
e 271 957
e 271 405
e 271 903
e 272 963
e 273 675
e 273 647
e 273 512
e 273 601
e 273 667
e 273 750
e 275 440
e 275 399
e 275 740
e 275 805
e 275 760
e 278 546
e 278 603
e 278 961
e 279 581
e 279 951
e 279 642
e 279 692
e 280 321
e 280 348
e 280 449
e 280 698
e 281 539
e 281 482
e 281 965
e 282 941
e 282 469
e 282 451
e 284 990
e 284 899
e 284 678
e 286 940
e 286 795
e 286 345
e 286 966
e 286 692
e 286 399
e 286 445
e 288 874
e 288 446
e 288 999
e 289 854
e 289 926
e 290 383
e 291 936
e 291 562
e 292 304
e 292 590
e 293 615
e 293 728
e 295 460
e 295 826
e 295 550
e 295 440
e 296 801
e 297 395
e 297 914
e 297 811
e 297 420
e 297 837
e 298 750
e 298 810
e 298 677
e 298 519
e 298 946
e 299 652
e 299 532
e 299 879
e 301 642
e 301 441
e 302 729
e 302 789
e 302 582
e 302 727
e 303 892
e 303 577
e 303 333
e 304 494
e 304 837
e 304 883
e 305 603
e 305 517
e 305 831
e 305 484
e 307 764
e 307 333
e 308 880
e 308 561
e 308 678
e 309 313
e 309 564
e 309 715
e 310 967
e 310 578
e 310 421
e 311 468
e 311 846
e 312 730
e 312 656
e 312 381
e 312 409
e 312 359
e 312 776
e 313 952
e 313 782
e 313 977
e 315 660
e 315 638
e 315 564
e 315 500
e 315 961
e 315 321
e 316 641
e 316 381
e 318 521
e 318 445
e 319 787
e 320 509
e 320 526
e 321 953
e 321 497
e 322 537
e 322 849
e 322 762
e 325 870
e 325 617
e 325 697
e 325 513
e 326 508
e 326 986
e 326 633
e 327 567
e 327 415
e 327 537
e 327 952
e 327 458
e 331 469
e 333 597
e 335 706
e 335 636
e 335 641
e 336 759
e 336 473
e 336 490
e 337 943
e 337 698
e 337 793
e 337 509
e 337 873
e 337 760
e 337 438
e 338 554
e 338 799
e 338 347
e 338 784
e 338 720
e 340 650
e 340 466
e 341 849
e 341 427
e 343 532
e 343 385
e 344 613
e 344 436
e 344 706
e 345 426
e 345 363
e 345 465
e 346 779
e 346 859
e 346 678
e 347 702
e 347 352
e 348 792
e 348 943
e 348 627
e 350 567
e 350 421
e 350 462
e 350 922
e 351 406
e 351 878
e 352 767
e 352 409
e 352 396
e 355 766
e 355 934
e 357 455
e 357 582
e 357 778
e 358 932
e 359 593
e 359 420
e 359 521
e 360 828
e 360 492
e 360 648
e 362 585
e 362 760
e 362 534
e 362 675
e 364 862
e 364 906
e 364 575
e 366 395
e 366 590
e 367 703
e 367 682
e 369 375
e 369 526
e 369 733
e 369 590
e 369 834
e 369 400
e 371 864
e 371 921
e 371 749
e 372 524
e 373 777
e 373 682
e 374 668
e 374 662
e 374 923
e 374 460
e 375 420
e 375 693
e 380 551
e 380 819
e 380 486
e 380 797
e 380 755
e 380 593
e 380 939
e 381 658
e 381 395
e 384 839
e 384 564
e 384 653
e 384 812
e 384 599
e 385 546
e 385 708
e 386 509
e 386 437
e 386 555
e 389 781
e 389 988
e 389 628
e 390 737
e 390 537
e 391 875
e 391 710
e 395 925
e 395 793
e 395 454
e 396 804
e 396 701
e 397 481
e 397 813
e 397 798
e 399 771
e 399 753
e 399 694
e 400 607
e 400 771
e 400 776
e 400 977
e 402 767
e 402 406
e 402 849
e 402 954
e 402 927
e 403 799
e 403 970
e 405 843
e 405 612
e 405 629
e 406 479
e 406 789
e 406 912
e 406 840
e 406 582
e 407 469
e 407 551
e 407 709
e 407 720
e 409 569
e 409 550
e 410 588
e 410 840
e 410 727
e 411 802
e 411 782
e 412 625
e 412 738
e 412 902
e 412 960
e 412 813
e 413 732
e 413 894
e 413 632
e 415 667
e 415 886
e 415 984
e 415 566
e 417 709
e 417 932
e 419 704
e 420 754
e 421 537
e 422 759
e 422 668
e 423 718
e 423 481
e 424 978
e 424 658
e 425 723
e 425 541
e 426 440
e 426 761
e 427 610
e 427 713
e 427 656
e 429 814
e 429 508
e 430 592
e 430 669
e 430 677
e 430 652
e 430 628
e 431 475
e 431 655
e 431 503
e 434 846
e 434 527
e 436 780
e 436 984
e 438 464
e 438 713
e 440 826
e 441 922
e 441 710
e 443 446
e 443 813
e 443 710
e 443 881
e 444 496
e 444 459
e 445 963
e 445 738
e 445 551
e 446 521
e 446 527
e 448 762
e 448 845
e 449 720
e 449 579
e 449 752
e 449 462
e 450 683
e 450 451
e 450 642
e 451 812
e 451 657
e 454 987
e 454 899
e 454 837
e 454 584
e 454 945
e 454 794
e 454 638
e 455 498
e 455 579
e 455 847
e 458 651
e 458 994
e 458 850
e 458 672
e 459 954
e 459 590
e 460 526
e 461 818
e 461 531
e 461 673
e 462 785
e 462 954
e 462 675
e 462 709
e 462 510
e 463 791
e 463 820
e 463 860
e 464 615
e 464 529
e 464 933
e 464 925
e 464 532
e 465 601
e 465 483
e 466 641
e 467 482
e 467 794
e 468 627
e 468 729
e 468 685
e 469 992
e 471 854
e 471 869
e 473 565
e 473 835
e 475 977
e 475 501
e 475 953
e 477 562
e 477 757
e 477 936
e 477 689
e 477 782
e 479 901
e 479 673
e 479 863
e 481 645
e 481 723
e 481 979
e 483 665
e 483 733
e 483 654
e 484 681
e 484 670
e 484 517
e 486 823
e 486 512
e 487 782
e 487 663
e 487 592
e 488 624
e 489 659
e 489 755
e 489 801
e 489 610
e 490 690
e 490 593
e 490 763
e 492 911
e 492 922
e 492 642
e 492 788
e 495 685
e 495 727
e 496 757
e 497 539
e 497 773
e 497 571
e 497 984
e 499 656
e 499 833
e 499 577
e 500 843
e 500 880
e 501 599
e 501 874
e 503 654
e 504 519
e 504 798
e 504 706
e 505 900
e 505 558
e 505 741
e 507 806
e 507 986
e 507 748
e 508 713
e 509 781
e 509 702
e 509 701
e 509 970
e 509 573
e 510 788
e 510 541
e 510 781
e 511 785
e 511 632
e 513 533
e 513 633
e 513 794
e 514 670
e 514 857
e 516 571
e 516 773
e 516 948
e 516 753
e 517 974
e 517 550
e 517 977
e 517 637
e 519 836
e 519 809
e 521 796
e 521 925
e 522 573
e 522 719
e 522 870
e 524 624
e 526 831
e 526 607
e 526 774
e 527 736
e 527 699
e 528 719
e 528 839
e 529 546
e 529 969
e 531 541
e 531 685
e 531 946
e 531 880
e 532 788
e 533 794
e 533 781
e 533 615
e 533 986
e 533 647
e 534 675
e 534 613
e 534 974
e 535 627
e 535 628
e 537 658
e 539 613
e 539 969
e 539 615
e 539 718
e 541 682
e 546 763
e 546 912
e 549 811
e 550 881
e 550 561
e 552 749
e 552 655
e 552 957
e 554 805
e 554 963
e 554 677
e 554 879
e 555 873
e 555 620
e 555 896
e 556 960
e 556 635
e 557 579
e 558 603
e 558 698
e 558 919
e 558 651
e 558 784
e 561 1000
e 561 977
e 562 926
e 564 662
e 564 673
e 564 579
e 565 773
e 565 675
e 565 636
e 565 782
e 566 978
e 566 715
e 566 835
e 566 813
e 567 963
e 567 648
e 568 682
e 568 882
e 569 639
e 569 835
e 570 762
e 570 766
e 570 771
e 570 666
e 571 778
e 573 669
e 573 643
e 573 693
e 573 690
e 574 609
e 575 628
e 575 796
e 577 824
e 578 854
e 578 720
e 578 978
e 578 903
e 579 853
e 581 736
e 582 634
e 582 697
e 583 890
e 583 908
e 583 903
e 583 632
e 584 774
e 584 916
e 585 845
e 587 792
e 587 834
e 587 852
e 588 768
e 590 640
e 592 808
e 592 907
e 592 957
e 592 973
e 592 777
e 597 805
e 599 755
e 599 690
e 600 860
e 601 652
e 602 805
e 603 781
e 603 671
e 605 799
e 605 880
e 607 878
e 609 701
e 609 933
e 610 882
e 611 627
e 611 613
e 612 665
e 613 822
e 614 908
e 614 737
e 615 966
e 617 863
e 617 988
e 617 816
e 617 723
e 619 860
e 620 674
e 620 671
e 622 940
e 622 950
e 622 813
e 623 875
e 623 675
e 624 637
e 625 830
e 627 752
e 628 700
e 628 873
e 629 769
e 629 764
e 629 872
e 630 739
e 630 778
e 631 945
e 631 767
e 632 767
e 633 787
e 633 645
e 633 941
e 633 685
e 634 934
e 634 734
e 635 692
e 636 990
e 638 863
e 640 823
e 640 950
e 641 767
e 641 833
e 642 822
e 642 791
e 643 900
e 645 716
e 645 648
e 645 805
e 645 816
e 647 839
e 647 936
e 650 703
e 650 878
e 650 946
e 651 926
e 653 663
e 653 948
e 654 845
e 655 927
e 655 819
e 656 734
e 657 738
e 657 973
e 658 990
e 659 895
e 659 733
e 660 961
e 660 927
e 660 681
e 662 974
e 662 921
e 663 990
e 663 682
e 665 986
e 665 818
e 666 722
e 666 697
e 666 901
e 669 823
e 670 806
e 670 824
e 671 860
e 671 923
e 672 764
e 672 901
e 674 699
e 674 696
e 675 782
e 675 761
e 675 795
e 677 793
e 678 988
e 678 750
e 680 857
e 680 853
e 680 712
e 680 804
e 683 735
e 684 860
e 684 795
e 685 740
e 686 876
e 686 689
e 689 948
e 689 822
e 689 840
e 690 883
e 692 987
e 692 994
e 694 894
e 694 945
e 696 972
e 696 872
e 696 998
e 697 936
e 697 846
e 697 950
e 697 762
e 698 1000
e 699 834
e 699 793
e 700 916
e 700 903
e 701 752
e 702 942
e 702 719
e 702 938
e 703 778
e 703 916
e 703 791
e 704 928
e 704 819
e 705 879
e 705 994
e 706 893
e 706 806
e 706 838
e 708 896
e 709 900
e 709 906
e 710 908
e 710 839
e 712 778
e 712 965
e 712 845
e 715 978
e 715 960
e 715 876
e 717 765
e 719 737
e 719 835
e 722 911
e 722 742
e 727 823
e 727 859
e 727 855
e 727 892
e 728 785
e 728 960
e 729 988
e 730 961
e 730 867
e 730 906
e 732 999
e 734 857
e 735 966
e 735 845
e 736 762
e 737 893
e 737 929
e 738 914
e 738 835
e 739 973
e 739 896
e 740 850
e 742 791
e 742 769
e 750 912
e 750 893
e 752 786
e 753 859
e 753 932
e 755 789
e 755 828
e 757 900
e 759 972
e 761 849
e 763 902
e 763 914
e 764 912
e 766 880
e 767 965
e 768 846
e 768 912
e 778 893
e 778 969
e 779 990
e 779 949
e 780 988
e 782 972
e 786 838
e 787 984
e 787 987
e 787 875
e 789 919
e 793 809
e 796 830
e 797 919
e 797 923
e 799 899
e 800 929
e 801 977
e 805 828
e 806 878
e 808 994
e 809 934
e 810 855
e 812 957
e 814 831
e 816 1000
e 817 942
e 817 860
e 819 984
e 820 872
e 820 967
e 826 946
e 827 899
e 836 895
e 837 977
e 838 949
e 839 855
e 847 960
e 848 966
e 851 890
e 852 939
e 853 926
e 853 939
e 854 963
e 855 984
e 857 951
e 859 974
e 860 910
e 862 984
e 864 896
e 867 910
e 869 894
e 870 952
e 872 914
e 873 952
e 875 919
e 880 886
e 892 951
e 895 901
e 901 902
e 919 934
e 929 979
e 932 970
e 934 956
e 936 941
e 938 992
e 939 979
e 939 990
e 941 956
e 943 973
e 952 990
