txt_Ins/graph-1000-232.txt
n 1000
e 1 239
e 1 410
e 1 731
e 1 163
e 2 128
e 2 42
e 2 92
e 3 198
e 3 920
e 3 202
e 3 457
e 4 915
e 4 202
e 4 666
e 4 143
e 4 550
e 4 358
e 4 747
e 5 804
e 5 390
e 5 251
e 5 786
e 6 674
e 6 638
e 6 696
e 6 244
e 6 549
e 6 998
e 6 117
e 6 520
e 7 110
e 7 638
e 7 80
e 7 941
e 8 426
e 8 712
e 8 108
e 8 124
e 8 385
e 9 289
e 9 33
e 9 698
e 9 189
e 9 95
e 9 87
e 9 418
e 9 379
e 12 573
e 12 462
e 12 244
e 13 534
e 13 829
e 13 416
e 13 701
e 13 460
e 13 317
e 13 540
e 13 157
e 14 292
e 14 801
e 14 453
e 15 819
e 15 702
e 15 289
e 16 516
e 16 33
e 16 319
e 16 751
e 16 854
e 16 810
e 16 761
e 17 852
e 17 927
e 17 233
e 19 513
e 19 443
e 19 504
e 19 389
e 19 849
e 19 813
e 20 35
e 20 629
e 20 159
e 20 768
e 20 500
e 20 703
e 20 895
e 21 864
e 21 362
e 21 920
e 21 821
e 21 405
e 22 48
e 22 662
e 22 843
e 22 826
e 22 852
e 22 412
e 23 112
e 23 480
e 23 677
e 23 572
e 23 199
e 23 576
e 24 504
e 24 240
e 24 618
e 25 73
e 25 303
e 25 171
e 25 175
e 25 193
e 26 821
e 26 354
e 26 255
e 26 704
e 26 892
e 27 332
e 27 31
e 27 799
e 27 932
e 29 633
e 29 435
e 29 637
e 30 576
e 30 47
e 30 515
e 31 933
e 31 340
e 31 673
e 31 775
e 31 283
e 33 734
e 33 685
e 35 882
e 35 866
e 35 676
e 35 880
e 36 521
e 36 287
e 36 534
e 37 521
e 37 127
e 37 57
e 37 462
e 37 356
e 37 793
e 37 193
e 37 350
e 37 986
e 37 379
e 38 589
e 38 863
e 38 598
e 38 618
e 38 365
e 38 864
e 39 977
e 39 124
e 39 472
e 39 927
e 39 257
e 39 288
e 39 664
e 39 864
e 39 235
e 39 623
e 39 251
e 40 130
e 40 714
e 40 304
e 40 89
e 41 939
e 41 379
e 41 850
e 41 578
e 41 962
e 41 733
e 42 911
e 42 756
e 43 73
e 43 140
e 43 869
e 43 300
e 46 95
e 46 54
e 46 658
e 46 945
e 47 920
e 47 715
e 47 998
e 47 527
e 47 105
e 48 751
e 48 190
e 48 320
e 48 851
e 49 421
e 49 705
e 49 448
e 49 203
e 50 563
e 50 780
e 50 294
e 50 254
e 50 737
e 50 115
e 52 627
e 52 79
e 52 739
e 52 107
e 52 182
e 53 692
e 53 564
e 53 788
e 53 553
e 53 489
e 53 639
e 53 764
e 53 846
e 53 326
e 53 340
e 53 92
e 53 954
e 54 508
e 54 786
e 54 968
e 54 792
e 54 336
e 55 768
e 55 991
e 55 190
e 57 320
e 57 345
e 57 748
e 57 551
e 58 582
e 58 764
e 58 401
e 58 119
e 58 689
e 60 942
e 60 650
e 60 280
e 60 845
e 60 371
e 60 838
e 61 803
e 61 698
e 61 419
e 61 735
e 61 902
e 62 365
e 62 612
e 62 567
e 62 596
e 62 731
e 62 922
e 63 262
e 63 418
e 63 196
e 63 539
e 64 715
e 64 765
e 64 871
e 64 239
e 64 676
e 64 978
e 66 815
e 66 454
e 66 422
e 66 950
e 68 832
e 68 653
e 68 111
e 68 414
e 69 523
e 69 968
e 69 424
e 69 502
e 70 636
e 70 629
e 70 174
e 70 785
e 70 487
e 71 389
e 71 614
e 71 637
e 72 796
e 72 596
e 72 271
e 72 106
e 73 567
e 73 661
e 73 229
e 73 385
e 73 591
e 74 164
e 74 928
e 74 139
e 74 110
e 74 373
e 75 638
e 75 778
e 75 606
e 76 243
e 76 948
e 76 208
e 76 959
e 76 640
e 77 351
e 77 436
e 77 277
e 78 128
e 78 952
e 78 150
e 78 295
e 78 631
e 78 835
e 78 893
e 79 336
e 79 556
e 79 298
e 79 354
e 80 722
e 80 556
e 81 821
e 81 997
e 81 332
e 84 793
e 84 458
e 84 863
e 84 321
e 84 628
e 84 574
e 84 993
e 86 797
e 86 764
e 86 808
e 86 704
e 86 827
e 86 448
e 86 773
e 87 334
e 87 405
e 87 480
e 87 426
e 87 709
e 87 388
e 87 476
e 87 108
e 88 839
e 88 215
e 88 394
e 88 638
e 88 213
e 88 125
e 89 834
e 89 509
e 90 306
e 90 733
e 90 419
e 92 172
e 92 270
e 92 758
e 92 649
e 93 171
e 93 576
e 93 668
e 93 909
e 94 145
e 94 709
e 94 869
e 94 489
e 95 209
e 95 402
e 95 837
e 95 405
e 98 712
e 98 339
e 98 442
e 98 154
e 98 760
e 98 448
e 99 194
e 99 226
e 99 444
e 100 695
e 100 386
e 100 584
e 100 151
e 101 852
e 101 604
e 101 624
e 101 731
e 102 862
e 102 201
e 102 128
e 102 885
e 102 954
e 102 719
e 102 874
e 103 538
e 103 848
e 103 600
e 103 162
e 103 902
e 103 955
e 104 940
e 104 140
e 104 573
e 105 915
e 105 906
e 105 684
e 105 416
e 105 775
e 106 373
e 106 422
e 106 157
e 107 256
e 107 409
e 108 764
e 108 754
e 108 852
e 108 430
e 109 235
e 109 330
e 109 692
e 109 172
e 110 500
e 110 206
e 110 601
e 111 288
e 111 444
e 111 494
e 112 999
e 112 510
e 112 953
e 112 168
e 113 933
e 113 540
e 113 670
e 114 464
e 114 423
e 114 695
e 114 889
e 115 834
e 115 155
e 115 423
e 117 611
e 117 721
e 117 683
e 119 217
e 119 601
e 119 295
e 119 172
e 119 335
e 119 892
e 121 326
e 121 433
e 121 177
e 121 334
e 122 532
e 122 573
e 122 842
e 122 939
e 123 606
e 123 186
e 123 635
e 123 813
e 123 303
e 123 231
e 124 213
e 124 793
e 124 925
e 125 488
e 125 622
e 125 249
e 125 373
e 125 257
e 125 809
e 125 718
e 126 610
e 126 548
e 126 596
e 126 130
e 127 818
e 127 483
e 127 604
e 127 525
e 127 330
e 127 271
e 128 274
e 129 740
e 129 884
e 129 931
e 129 464
e 129 565
e 129 366
e 129 826
e 129 833
e 130 753
e 130 748
e 131 148
e 131 526
e 131 357
e 132 340
e 132 460
e 132 708
e 133 776
e 133 252
e 133 892
e 135 203
e 135 292
e 135 927
e 139 288
e 139 634
e 139 315
e 139 711
e 139 862
e 139 972
e 140 171
e 140 759
e 140 244
e 140 729
e 141 372
e 141 365
e 141 368
e 143 868
e 143 974
e 144 777
e 144 244
e 144 971
e 144 511
e 145 882
e 145 826
e 145 372
e 147 932
e 147 847
e 147 445
e 148 853
e 148 344
e 148 797
e 149 773
e 149 554
e 149 252
e 150 950
e 150 631
e 150 939
e 151 477
e 151 599
e 151 463
e 152 997
e 152 570
e 152 291
e 152 871
e 154 836
e 154 717
e 154 510
e 154 370
e 155 476
e 155 532
e 155 642
e 156 880
e 156 915
e 156 485
e 156 256
e 156 817
e 156 411
e 156 179
e 157 683
e 158 658
e 158 249
e 158 823
e 158 318
e 159 412
e 159 807
e 159 816
e 160 587
e 160 993
e 160 330
e 161 262
e 161 497
e 161 271
e 161 850
e 162 251
e 162 684
e 162 618
e 162 644
e 163 719
e 163 920
e 163 829
e 163 800
e 164 875
e 164 584
e 164 667
e 164 533
e 166 728
e 166 799
e 166 168
e 166 509
e 166 450
e 166 868
e 168 959
e 169 210
e 169 893
e 169 226
e 170 221
e 170 349
e 170 386
e 171 481
e 171 294
e 172 548
e 172 508
e 172 258
e 172 606
e 174 573
e 174 656
e 174 190
e 174 555
e 175 709
e 175 310
e 175 383
e 177 422
e 177 907
e 177 466
e 178 458
e 178 703
e 178 491
e 178 321
e 179 582
e 179 983
e 179 358
e 179 809
e 180 419
e 180 271
e 180 838
e 180 539
e 182 680
e 182 487
e 182 630
e 182 290
e 183 217
e 183 654
e 183 599
e 184 582
e 184 511
e 184 608
e 186 716
e 186 727
e 186 454
e 186 221
e 187 306
e 187 938
e 187 580
e 187 203
e 187 513
e 188 893
e 188 203
e 188 853
e 189 747
e 189 740
e 190 613
e 190 854
e 191 681
e 191 693
e 191 950
e 191 822
e 191 203
e 192 460
e 192 689
e 192 532
e 192 285
e 193 265
e 193 366
e 193 804
e 194 357
e 194 966
e 194 606
e 195 233
e 195 718
e 195 939
e 195 753
e 196 503
e 196 374
e 196 666
e 197 939
e 197 868
e 197 965
e 198 983
e 198 424
e 199 302
e 199 283
e 199 707
e 200 289
e 200 564
e 200 756
e 200 525
e 201 380
e 201 974
e 201 526
e 202 630
e 203 776
e 203 875
e 203 498
e 203 634
e 203 531
e 203 465
e 205 633
e 205 631
e 205 689
e 205 712
e 206 518
e 206 796
e 206 854
e 206 619
e 206 422
e 206 884
e 207 709
e 207 318
e 207 336
e 207 644
e 207 791
e 207 371
e 208 716
e 208 827
e 208 474
e 209 987
e 209 520
e 209 493
e 209 948
e 209 800
e 210 632
e 210 536
e 213 489
e 213 705
e 213 878
e 214 877
e 214 238
e 214 613
e 214 516
e 215 493
e 215 796
e 215 563
e 216 453
e 216 833
e 216 993
e 216 918
e 217 931
e 217 568
e 217 665
e 218 826
e 218 463
e 218 382
e 219 398
e 219 263
e 219 987
e 220 633
e 220 941
e 220 356
e 221 252
e 221 504
e 221 846
e 221 801
e 221 265
e 221 809
e 222 842
e 222 382
e 222 488
e 222 459
e 226 260
e 226 362
e 227 628
e 227 785
e 227 576
e 227 447
e 227 784
e 228 290
e 228 270
e 228 650
e 228 551
e 229 881
e 229 330
e 229 898
e 230 303
e 230 827
e 230 358
e 230 495
e 231 534
e 231 925
e 231 682
e 232 964
e 232 494
e 232 779
e 232 868
e 232 767
e 233 462
e 233 722
e 233 623
e 234 843
e 234 803
e 234 651
e 234 549
e 235 444
e 235 470
e 235 733
e 235 785
e 238 895
e 238 477
e 239 486
e 239 960
e 239 691
e 239 952
e 240 765
e 240 956
e 241 604
e 241 976
e 241 481
e 242 587
e 242 821
e 242 949
e 243 365
e 243 551
e 244 732
e 244 342
e 245 521
e 245 606
e 245 910
e 245 602
e 245 436
e 245 474
e 246 405
e 246 853
e 246 424
e 246 884
e 248 805
e 248 852
e 248 568
e 248 679
e 248 654
e 249 878
e 249 812
e 249 279
e 250 525
e 250 454
e 250 642
e 251 637
e 251 598
e 251 965
e 251 993
e 252 311
e 252 507
e 253 411
e 253 385
e 253 425
e 253 342
e 253 497
e 253 539
e 254 394
e 254 343
e 255 621
e 255 420
e 255 528
e 255 504
e 256 868
e 256 862
e 257 766
e 257 853
e 257 879
e 257 586
e 258 674
e 258 900
e 258 673
e 258 502
e 258 533
e 259 830
e 259 861
e 259 468
e 259 589
e 260 873
e 260 477
e 260 843
e 260 835
e 260 347
e 260 779
e 260 300
e 262 459
e 262 666
e 262 502
e 262 783
e 262 872
e 262 626
e 262 503
e 262 822
e 263 921
e 263 954
e 263 734
e 263 527
e 264 424
e 264 906
e 264 386
e 264 974
e 264 998
e 264 937
e 265 623
e 265 655
e 268 847
e 268 609
e 268 592
e 270 428
e 270 701
e 270 956
e 270 404
e 270 902
e 271 962
e 272 674
e 272 646
e 272 511
e 272 600
e 272 666
e 272 749
e 274 439
e 274 398
e 274 739
e 274 804
e 274 759
e 277 545
e 277 602
e 277 960
e 278 580
e 278 950
e 278 641
e 278 691
e 279 320
e 279 347
e 279 448
e 279 697
e 280 538
e 280 481
e 280 964
e 281 940
e 281 468
e 281 450
e 283 989
e 283 898
e 283 677
e 285 939
e 285 794
e 285 344
e 285 965
e 285 691
e 285 398
e 285 444
e 287 873
e 287 445
e 287 998
e 288 853
e 288 925
e 289 382
e 290 935
e 290 561
e 291 303
e 291 589
e 292 614
e 292 727
e 294 459
e 294 825
e 294 549
e 294 439
e 295 800
e 296 394
e 296 913
e 296 810
e 296 419
e 296 836
e 297 749
e 297 809
e 297 676
e 297 518
e 297 945
e 298 651
e 298 531
e 298 878
e 300 641
e 300 440
e 301 728
e 301 788
e 301 581
e 301 726
e 302 891
e 302 576
e 302 332
e 303 493
e 303 836
e 303 882
e 304 602
e 304 516
e 304 830
e 304 483
e 306 763
e 306 332
e 307 879
e 307 560
e 307 677
e 308 312
e 308 563
e 308 714
e 309 966
e 309 577
e 309 420
e 310 467
e 310 845
e 311 729
e 311 655
e 311 380
e 311 408
e 311 358
e 311 775
e 312 951
e 312 781
e 312 976
e 314 659
e 314 637
e 314 563
e 314 499
e 314 960
e 314 320
e 315 640
e 315 380
e 317 520
e 317 444
e 318 786
e 319 508
e 319 525
e 320 952
e 320 496
e 321 536
e 321 848
e 321 761
e 324 869
e 324 616
e 324 696
e 324 512
e 325 507
e 325 985
e 325 632
e 326 566
e 326 414
e 326 536
e 326 951
e 326 457
e 330 468
e 332 596
e 334 705
e 334 635
e 334 640
e 335 758
e 335 472
e 335 489
e 336 942
e 336 697
e 336 792
e 336 508
e 336 872
e 336 759
e 336 437
e 337 553
e 337 798
e 337 346
e 337 783
e 337 719
e 339 649
e 339 465
e 340 848
e 340 426
e 342 531
e 342 384
e 343 612
e 343 435
e 343 705
e 344 425
e 344 362
e 344 464
e 345 778
e 345 858
e 345 677
e 346 701
e 346 351
e 347 791
e 347 942
e 347 626
e 349 566
e 349 420
e 349 461
e 349 921
e 350 405
e 350 877
e 351 766
e 351 408
e 351 395
e 354 765
e 354 933
e 356 454
e 356 581
e 356 777
e 357 931
e 358 592
e 358 419
e 358 520
e 359 827
e 359 491
e 359 647
e 361 584
e 361 759
e 361 533
e 361 674
e 363 861
e 363 905
e 363 574
e 365 394
e 365 589
e 366 702
e 366 681
e 368 374
e 368 525
e 368 732
e 368 589
e 368 833
e 368 399
e 370 863
e 370 920
e 370 748
e 371 523
e 372 776
e 372 681
e 373 667
e 373 661
e 373 922
e 373 459
e 374 419
e 374 692
e 379 550
e 379 818
e 379 485
e 379 796
e 379 754
e 379 592
e 379 938
e 380 657
e 380 394
e 383 838
e 383 563
e 383 652
e 383 811
e 383 598
e 384 545
e 384 707
e 385 508
e 385 436
e 385 554
e 388 780
e 388 987
e 388 627
e 389 736
e 389 536
e 390 874
e 390 709
e 394 924
e 394 792
e 394 453
e 395 803
e 395 700
e 396 480
e 396 812
e 396 797
e 398 770
e 398 752
e 398 693
e 399 606
e 399 770
e 399 775
e 399 976
e 401 766
e 401 405
e 401 848
e 401 953
e 401 926
e 402 798
e 402 969
e 404 842
e 404 611
e 404 628
e 405 478
e 405 788
e 405 911
e 405 839
e 405 581
e 406 468
e 406 550
e 406 708
e 406 719
e 408 568
e 408 549
e 409 587
e 409 839
e 409 726
e 410 801
e 410 781
e 411 624
e 411 737
e 411 901
e 411 959
e 411 812
e 412 731
e 412 893
e 412 631
e 414 666
e 414 885
e 414 983
e 414 565
e 416 708
e 416 931
e 418 703
e 419 753
e 420 536
e 421 758
e 421 667
e 422 717
e 422 480
e 423 977
e 423 657
e 424 722
e 424 540
e 425 439
e 425 760
e 426 609
e 426 712
e 426 655
e 428 813
e 428 507
e 429 591
e 429 668
e 429 676
e 429 651
e 429 627
e 430 474
e 430 654
e 430 502
e 433 845
e 433 526
e 435 779
e 435 983
e 437 463
e 437 712
e 439 825
e 440 921
e 440 709
e 442 445
e 442 812
e 442 709
e 442 880
e 443 495
e 443 458
e 444 962
e 444 737
e 444 550
e 445 520
e 445 526
e 447 761
e 447 844
e 448 719
e 448 578
e 448 751
e 448 461
e 449 682
e 449 450
e 449 641
e 450 811
e 450 656
e 453 986
e 453 898
e 453 836
e 453 583
e 453 944
e 453 793
e 453 637
e 454 497
e 454 578
e 454 846
e 457 650
e 457 993
e 457 849
e 457 671
e 458 953
e 458 589
e 459 525
e 460 817
e 460 530
e 460 672
e 461 784
e 461 953
e 461 674
e 461 708
e 461 509
e 462 790
e 462 819
e 462 859
e 463 614
e 463 528
e 463 932
e 463 924
e 463 531
e 464 600
e 464 482
e 465 640
e 466 481
e 466 793
e 467 626
e 467 728
e 467 684
e 468 991
e 470 853
e 470 868
e 472 564
e 472 834
e 474 976
e 474 500
e 474 952
e 476 561
e 476 756
e 476 935
e 476 688
e 476 781
e 478 900
e 478 672
e 478 862
e 480 644
e 480 722
e 480 978
e 482 664
e 482 732
e 482 653
e 483 680
e 483 669
e 483 516
e 485 822
e 485 511
e 486 781
e 486 662
e 486 591
e 487 623
e 488 658
e 488 754
e 488 800
e 488 609
e 489 689
e 489 592
e 489 762
e 491 910
e 491 921
e 491 641
e 491 787
e 494 684
e 494 726
e 495 756
e 496 538
e 496 772
e 496 570
e 496 983
e 498 655
e 498 832
e 498 576
e 499 842
e 499 879
e 500 598
e 500 873
e 502 653
e 503 518
e 503 797
e 503 705
e 504 899
e 504 557
e 504 740
e 506 805
e 506 985
e 506 747
e 507 712
e 508 780
e 508 701
e 508 700
e 508 969
e 508 572
e 509 787
e 509 540
e 509 780
e 510 784
e 510 631
e 512 532
e 512 632
e 512 793
e 513 669
e 513 856
e 515 570
e 515 772
e 515 947
e 515 752
e 516 973
e 516 549
e 516 976
e 516 636
e 518 835
e 518 808
e 520 795
e 520 924
e 521 572
e 521 718
e 521 869
e 523 623
e 525 830
e 525 606
e 525 773
e 526 735
e 526 698
e 527 718
e 527 838
e 528 545
e 528 968
e 530 540
e 530 684
e 530 945
e 530 879
e 531 787
e 532 793
e 532 780
e 532 614
e 532 985
e 532 646
e 533 674
e 533 612
e 533 973
e 534 626
e 534 627
e 536 657
e 538 612
e 538 968
e 538 614
e 538 717
e 540 681
e 545 762
e 545 911
e 548 810
e 549 880
e 549 560
e 551 748
e 551 654
e 551 956
e 553 804
e 553 962
e 553 676
e 553 878
e 554 872
e 554 619
e 554 895
e 555 959
e 555 634
e 556 578
e 557 602
e 557 697
e 557 918
e 557 650
e 557 783
e 560 999
e 560 976
e 561 925
e 563 661
e 563 672
e 563 578
e 564 772
e 564 674
e 564 635
e 564 781
e 565 977
e 565 714
e 565 834
e 565 812
e 566 962
e 566 647
e 567 681
e 567 881
e 568 638
e 568 834
e 569 761
e 569 765
e 569 770
e 569 665
e 570 777
e 572 668
e 572 642
e 572 692
e 572 689
e 573 608
e 574 627
e 574 795
e 576 823
e 577 853
e 577 719
e 577 977
e 577 902
e 578 852
e 580 735
e 581 633
e 581 696
e 582 889
e 582 907
e 582 902
e 582 631
e 583 773
e 583 915
e 584 844
e 586 791
e 586 833
e 586 851
e 587 767
e 589 639
e 591 807
e 591 906
e 591 956
e 591 972
e 591 776
e 596 804
e 598 754
e 598 689
e 599 859
e 600 651
e 601 804
e 602 780
e 602 670
e 604 798
e 604 879
e 606 877
e 608 700
e 608 932
e 609 881
e 610 626
e 610 612
e 611 664
e 612 821
e 613 907
e 613 736
e 614 965
e 616 862
e 616 987
e 616 815
e 616 722
e 618 859
e 619 673
e 619 670
e 621 939
e 621 949
e 621 812
e 622 874
e 622 674
e 623 636
e 624 829
e 626 751
e 627 699
e 627 872
e 628 768
e 628 763
e 628 871
e 629 738
e 629 777
e 630 944
e 630 766
e 631 766
e 632 786
e 632 644
e 632 940
e 632 684
e 633 933
e 633 733
e 634 691
e 635 989
e 637 862
e 639 822
e 639 949
e 640 766
e 640 832
e 641 821
e 641 790
e 642 899
e 644 715
e 644 647
e 644 804
e 644 815
e 646 838
e 646 935
e 649 702
e 649 877
e 649 945
e 650 925
e 652 662
e 652 947
e 653 844
e 654 926
e 654 818
e 655 733
e 656 737
e 656 972
e 657 989
e 658 894
e 658 732
e 659 960
e 659 926
e 659 680
e 661 973
e 661 920
e 662 989
e 662 681
e 664 985
e 664 817
e 665 721
e 665 696
e 665 900
e 668 822
e 669 805
e 669 823
e 670 859
e 670 922
e 671 763
e 671 900
e 673 698
e 673 695
e 674 781
e 674 760
e 674 794
e 676 792
e 677 987
e 677 749
e 679 856
e 679 852
e 679 711
e 679 803
e 682 734
e 683 859
e 683 794
e 684 739
e 685 875
e 685 688
e 688 947
e 688 821
e 688 839
e 689 882
e 691 986
e 691 993
e 693 893
e 693 944
e 695 971
e 695 871
e 695 997
e 696 935
e 696 845
e 696 949
e 696 761
e 697 999
e 698 833
e 698 792
e 699 915
e 699 902
e 700 751
e 701 941
e 701 718
e 701 937
e 702 777
e 702 915
e 702 790
e 703 927
e 703 818
e 704 878
e 704 993
e 705 892
e 705 805
e 705 837
e 707 895
e 708 899
e 708 905
e 709 907
e 709 838
e 711 777
e 711 964
e 711 844
e 714 977
e 714 959
e 714 875
e 716 764
e 718 736
e 718 834
e 721 910
e 721 741
e 726 822
e 726 858
e 726 854
e 726 891
e 727 784
e 727 959
e 728 987
e 729 960
e 729 866
e 729 905
e 731 998
e 733 856
e 734 965
e 734 844
e 735 761
e 736 892
e 736 928
e 737 913
e 737 834
e 738 972
e 738 895
e 739 849
e 741 790
e 741 768
e 749 911
e 749 892
e 751 785
e 752 858
e 752 931
e 754 788
e 754 827
e 756 899
e 758 971
e 760 848
e 762 901
e 762 913
e 763 911
e 765 879
e 766 964
e 767 845
e 767 911
e 777 892
e 777 968
e 778 989
e 778 948
e 779 987
e 781 971
e 785 837
e 786 983
e 786 986
e 786 874
e 788 918
e 792 808
e 795 829
e 796 918
e 796 922
e 798 898
e 799 928
e 800 976
e 804 827
e 805 877
e 807 993
e 808 933
e 809 854
e 811 956
e 813 830
e 815 999
e 816 941
e 816 859
e 818 983
e 819 871
e 819 966
e 825 945
e 826 898
e 835 894
e 836 976
e 837 948
e 838 854
e 846 959
e 847 965
e 850 889
e 851 938
e 852 925
e 852 938
e 853 962
e 854 983
e 856 950
e 858 973
e 859 909
e 861 983
e 863 895
e 866 909
e 868 893
e 869 951
e 871 913
e 872 951
e 874 918
e 879 885
e 891 950
e 894 900
e 900 901
e 918 933
e 928 978
e 931 969
e 933 955
e 935 940
e 937 991
e 938 978
e 938 989
e 940 955
e 942 972
e 951 989
